TC_ILP/fir2_1.0.lp
Minimize
M1 + M2
Subject To
x0,12 = 1
x1,12 = 1
x2,11 = 1
x3,12 = 1
x4,12 = 1
x5,11 = 1
x6,11 + x6,12 = 1
x7,11 + x7,12 = 1
x8,10 + x8,11 = 1
x9,10 + x9,11 + x9,12 = 1
x10,10 + x10,11 + x10,12 = 1
x11,9 + x11,10 + x11,11 = 1
x12,9 + x12,10 + x12,11 + x12,12 = 1
x13,9 + x13,10 + x13,11 + x13,12 = 1
x14,8 + x14,9 + x14,10 + x14,11 = 1
x15,8 + x15,9 + x15,10 + x15,11 + x15,12 = 1
x16,8 + x16,9 + x16,10 + x16,11 + x16,12 = 1
x17,7 + x17,8 + x17,9 + x17,10 + x17,11 = 1
x18,7 + x18,8 + x18,9 + x18,10 + x18,11 + x18,12 = 1
x19,7 + x19,8 + x19,9 + x19,10 + x19,11 + x19,12 = 1
x20,6 + x20,7 + x20,8 + x20,9 + x20,10 + x20,11 = 1
x21,6 + x21,7 + x21,8 + x21,9 + x21,10 + x21,11 + x21,12 = 1
x22,6 + x22,7 + x22,8 + x22,9 + x22,10 + x22,11 + x22,12 = 1
x23,5 + x23,6 + x23,7 + x23,8 + x23,9 + x23,10 + x23,11 = 1
x24,9 = 1
x25,9 = 1
x26,8 + x26,9 = 1
x27,7 + x27,8 + x27,9 = 1
x28,6 + x28,7 + x28,8 + x28,9 = 1
x29,5 + x29,6 + x29,7 + x29,8 + x29,9 = 1
x30,4 + x30,5 + x30,6 + x30,7 + x30,8 + x30,9 = 1
x31,3 + x31,4 + x31,5 + x31,6 + x31,7 + x31,8 + x31,9 = 1
x32,8 = 1
x33,7 = 1
x34,6 = 1
x35,5 = 1
x36,4 = 1
x37,3 = 1
x38,2 = 1
x39,1 = 1
x30,4 + x30,3 + x31,4 + x31,3 - M1 <= 0
x23,5 + x35,5 - M2 <= 0
x29,5 + x29,4 + x30,5 + x30,4 + x31,5 + x31,4 - M1 <= 0
x20,6 + x21,6 + x22,6 + x23,6 + x34,6 - M2 <= 0
x28,6 + x28,5 + x29,6 + x29,5 + x30,6 + x30,5 + x31,6 + x31,5 - M1 <= 0
x17,7 + x18,7 + x19,7 + x20,7 + x21,7 + x22,7 + x23,7 + x33,7 - M2 <= 0
x27,7 + x27,6 + x28,7 + x28,6 + x29,7 + x29,6 + x30,7 + x30,6 + x31,7 + x31,6 - M1 <= 0
x14,8 + x15,8 + x16,8 + x17,8 + x18,8 + x19,8 + x20,8 + x21,8 + x22,8 + x23,8 + x32,8 - M2 <= 0
x26,8 + x26,7 + x27,8 + x27,7 + x28,8 + x28,7 + x29,8 + x29,7 + x30,8 + x30,7 + x31,8 + x31,7 - M1 <= 0
x11,9 + x12,9 + x13,9 + x14,9 + x15,9 + x16,9 + x17,9 + x18,9 + x19,9 + x20,9 + x21,9 + x22,9 + x23,9 - M2 <= 0
x24,9 + x24,8 + x25,9 + x25,8 + x26,9 + x26,8 + x27,9 + x27,8 + x28,9 + x28,8 + x29,9 + x29,8 + x30,9 + x30,8 + x31,9 + x31,8 - M1 <= 0
x8,10 + x9,10 + x10,10 + x11,10 + x12,10 + x13,10 + x14,10 + x15,10 + x16,10 + x17,10 + x18,10 + x19,10 + x20,10 + x21,10 + x22,10 + x23,10 - M2 <= 0
x24,10 + x24,9 + x25,10 + x25,9 + x26,10 + x26,9 + x27,10 + x27,9 + x28,10 + x28,9 + x29,10 + x29,9 + x30,10 + x30,9 + x31,10 + x31,9 - M1 <= 0
x2,11 + x5,11 + x6,11 + x7,11 + x8,11 + x9,11 + x10,11 + x11,11 + x12,11 + x13,11 + x14,11 + x15,11 + x16,11 + x17,11 + x18,11 + x19,11 + x20,11 + x21,11 + x22,11 + x23,11 - M2 <= 0
x0,12 + x1,12 + x3,12 + x4,12 + x6,12 + x7,12 + x9,12 + x10,12 + x12,12 + x13,12 + x15,12 + x16,12 + x18,12 + x19,12 + x21,12 + x22,12 - M2 <= 0
11 x2,11 - 12 x0,12 <= -1
11 x2,11 - 12 x1,12 <= -1
11 x5,11 - 12 x3,12 <= -1
11 x5,11 - 12 x4,12 <= -1
10 x8,10 + 11 x8,11 - 11 x6,11 - 12 x6,12 <= -1
10 x8,10 + 11 x8,11 - 11 x7,11 - 12 x7,12 <= -1
9 x11,9 + 10 x11,10 + 11 x11,11 - 10 x9,10 - 11 x9,11 - 12 x9,12 <= -1
9 x11,9 + 10 x11,10 + 11 x11,11 - 10 x10,10 - 11 x10,11 - 12 x10,12 <= -1
8 x14,8 + 9 x14,9 + 10 x14,10 + 11 x14,11 - 9 x12,9 - 10 x12,10 - 11 x12,11 - 12 x12,12 <= -1
8 x14,8 + 9 x14,9 + 10 x14,10 + 11 x14,11 - 9 x13,9 - 10 x13,10 - 11 x13,11 - 12 x13,12 <= -1
7 x17,7 + 8 x17,8 + 9 x17,9 + 10 x17,10 + 11 x17,11 - 8 x15,8 - 9 x15,9 - 10 x15,10 - 11 x15,11 - 12 x15,12 <= -1
7 x17,7 + 8 x17,8 + 9 x17,9 + 10 x17,10 + 11 x17,11 - 8 x16,8 - 9 x16,9 - 10 x16,10 - 11 x16,11 - 12 x16,12 <= -1
6 x20,6 + 7 x20,7 + 8 x20,8 + 9 x20,9 + 10 x20,10 + 11 x20,11 - 7 x18,7 - 8 x18,8 - 9 x18,9 - 10 x18,10 - 11 x18,11 - 12 x18,12 <= -1
6 x20,6 + 7 x20,7 + 8 x20,8 + 9 x20,9 + 10 x20,10 + 11 x20,11 - 7 x19,7 - 8 x19,8 - 9 x19,9 - 10 x19,10 - 11 x19,11 - 12 x19,12 <= -1
5 x23,5 + 6 x23,6 + 7 x23,7 + 8 x23,8 + 9 x23,9 + 10 x23,10 + 11 x23,11 - 6 x21,6 - 7 x21,7 - 8 x21,8 - 9 x21,9 - 10 x21,10 - 11 x21,11 - 12 x21,12 <= -1
5 x23,5 + 6 x23,6 + 7 x23,7 + 8 x23,8 + 9 x23,9 + 10 x23,10 + 11 x23,11 - 6 x22,6 - 7 x22,7 - 8 x22,8 - 9 x22,9 - 10 x22,10 - 11 x22,11 - 12 x22,12 <= -1
9 x24,9 - 11 x2,11 <= -2
9 x25,9 - 11 x5,11 <= -2
8 x26,8 + 9 x26,9 - 10 x8,10 - 11 x8,11 <= -2
7 x27,7 + 8 x27,8 + 9 x27,9 - 9 x11,9 - 10 x11,10 - 11 x11,11 <= -2
6 x28,6 + 7 x28,7 + 8 x28,8 + 9 x28,9 - 8 x14,8 - 9 x14,9 - 10 x14,10 - 11 x14,11 <= -2
5 x29,5 + 6 x29,6 + 7 x29,7 + 8 x29,8 + 9 x29,9 - 7 x17,7 - 8 x17,8 - 9 x17,9 - 10 x17,10 - 11 x17,11 <= -2
4 x30,4 + 5 x30,5 + 6 x30,6 + 7 x30,7 + 8 x30,8 + 9 x30,9 - 6 x20,6 - 7 x20,7 - 8 x20,8 - 9 x20,9 - 10 x20,10 - 11 x20,11 <= -2
3 x31,3 + 4 x31,4 + 5 x31,5 + 6 x31,6 + 7 x31,7 + 8 x31,8 + 9 x31,9 - 5 x23,5 - 6 x23,6 - 7 x23,7 - 8 x23,8 - 9 x23,9 - 10 x23,10 - 11 x23,11 <= -2
8 x32,8 - 9 x24,9 <= -1
8 x32,8 - 9 x25,9 <= -1
7 x33,7 - 8 x26,8 - 9 x26,9 <= -1
7 x33,7 - 8 x32,8 <= -1
6 x34,6 - 7 x27,7 - 8 x27,8 - 9 x27,9 <= -1
6 x34,6 - 7 x33,7 <= -1
5 x35,5 - 6 x28,6 - 7 x28,7 - 8 x28,8 - 9 x28,9 <= -1
5 x35,5 - 6 x34,6 <= -1
4 x36,4 - 5 x29,5 - 6 x29,6 - 7 x29,7 - 8 x29,8 - 9 x29,9 <= -1
4 x36,4 - 5 x35,5 <= -1
3 x37,3 - 4 x30,4 - 5 x30,5 - 6 x30,6 - 7 x30,7 - 8 x30,8 - 9 x30,9 <= -1
3 x37,3 - 4 x36,4 <= -1
2 x38,2 - 3 x31,3 - 4 x31,4 - 5 x31,5 - 6 x31,6 - 7 x31,7 - 8 x31,8 - 9 x31,9 <= -1
2 x38,2 - 3 x37,3 <= -1
1 x39,1 - 2 x38,2 <= -1
Bounds
0 <= x0,12 <= 1
0 <= x1,12 <= 1
0 <= x2,11 <= 1
0 <= x3,12 <= 1
0 <= x4,12 <= 1
0 <= x5,11 <= 1
0 <= x6,11 <= 1
0 <= x6,12 <= 1
0 <= x7,11 <= 1
0 <= x7,12 <= 1
0 <= x8,10 <= 1
0 <= x8,11 <= 1
0 <= x9,10 <= 1
0 <= x9,11 <= 1
0 <= x9,12 <= 1
0 <= x10,10 <= 1
0 <= x10,11 <= 1
0 <= x10,12 <= 1
0 <= x11,9 <= 1
0 <= x11,10 <= 1
0 <= x11,11 <= 1
0 <= x12,9 <= 1
0 <= x12,10 <= 1
0 <= x12,11 <= 1
0 <= x12,12 <= 1
0 <= x13,9 <= 1
0 <= x13,10 <= 1
0 <= x13,11 <= 1
0 <= x13,12 <= 1
0 <= x14,8 <= 1
0 <= x14,9 <= 1
0 <= x14,10 <= 1
0 <= x14,11 <= 1
0 <= x15,8 <= 1
0 <= x15,9 <= 1
0 <= x15,10 <= 1
0 <= x15,11 <= 1
0 <= x15,12 <= 1
0 <= x16,8 <= 1
0 <= x16,9 <= 1
0 <= x16,10 <= 1
0 <= x16,11 <= 1
0 <= x16,12 <= 1
0 <= x17,7 <= 1
0 <= x17,8 <= 1
0 <= x17,9 <= 1
0 <= x17,10 <= 1
0 <= x17,11 <= 1
0 <= x18,7 <= 1
0 <= x18,8 <= 1
0 <= x18,9 <= 1
0 <= x18,10 <= 1
0 <= x18,11 <= 1
0 <= x18,12 <= 1
0 <= x19,7 <= 1
0 <= x19,8 <= 1
0 <= x19,9 <= 1
0 <= x19,10 <= 1
0 <= x19,11 <= 1
0 <= x19,12 <= 1
0 <= x20,6 <= 1
0 <= x20,7 <= 1
0 <= x20,8 <= 1
0 <= x20,9 <= 1
0 <= x20,10 <= 1
0 <= x20,11 <= 1
0 <= x21,6 <= 1
0 <= x21,7 <= 1
0 <= x21,8 <= 1
0 <= x21,9 <= 1
0 <= x21,10 <= 1
0 <= x21,11 <= 1
0 <= x21,12 <= 1
0 <= x22,6 <= 1
0 <= x22,7 <= 1
0 <= x22,8 <= 1
0 <= x22,9 <= 1
0 <= x22,10 <= 1
0 <= x22,11 <= 1
0 <= x22,12 <= 1
0 <= x23,5 <= 1
0 <= x23,6 <= 1
0 <= x23,7 <= 1
0 <= x23,8 <= 1
0 <= x23,9 <= 1
0 <= x23,10 <= 1
0 <= x23,11 <= 1
0 <= x24,9 <= 1
0 <= x25,9 <= 1
0 <= x26,8 <= 1
0 <= x26,9 <= 1
0 <= x27,7 <= 1
0 <= x27,8 <= 1
0 <= x27,9 <= 1
0 <= x28,6 <= 1
0 <= x28,7 <= 1
0 <= x28,8 <= 1
0 <= x28,9 <= 1
0 <= x29,5 <= 1
0 <= x29,6 <= 1
0 <= x29,7 <= 1
0 <= x29,8 <= 1
0 <= x29,9 <= 1
0 <= x30,4 <= 1
0 <= x30,5 <= 1
0 <= x30,6 <= 1
0 <= x30,7 <= 1
0 <= x30,8 <= 1
0 <= x30,9 <= 1
0 <= x31,3 <= 1
0 <= x31,4 <= 1
0 <= x31,5 <= 1
0 <= x31,6 <= 1
0 <= x31,7 <= 1
0 <= x31,8 <= 1
0 <= x31,9 <= 1
0 <= x32,8 <= 1
0 <= x33,7 <= 1
0 <= x34,6 <= 1
0 <= x35,5 <= 1
0 <= x36,4 <= 1
0 <= x37,3 <= 1
0 <= x38,2 <= 1
0 <= x39,1 <= 1
M1 >= 1
M2 >= 1
Generals
x0,12
x1,12
x2,11
x3,12
x4,12
x5,11
x6,11
x6,12
x7,11
x7,12
x8,10
x8,11
x9,10
x9,11
x9,12
x10,10
x10,11
x10,12
x11,9
x11,10
x11,11
x12,9
x12,10
x12,11
x12,12
x13,9
x13,10
x13,11
x13,12
x14,8
x14,9
x14,10
x14,11
x15,8
x15,9
x15,10
x15,11
x15,12
x16,8
x16,9
x16,10
x16,11
x16,12
x17,7
x17,8
x17,9
x17,10
x17,11
x18,7
x18,8
x18,9
x18,10
x18,11
x18,12
x19,7
x19,8
x19,9
x19,10
x19,11
x19,12
x20,6
x20,7
x20,8
x20,9
x20,10
x20,11
x21,6
x21,7
x21,8
x21,9
x21,10
x21,11
x21,12
x22,6
x22,7
x22,8
x22,9
x22,10
x22,11
x22,12
x23,5
x23,6
x23,7
x23,8
x23,9
x23,10
x23,11
x24,9
x25,9
x26,8
x26,9
x27,7
x27,8
x27,9
x28,6
x28,7
x28,8
x28,9
x29,5
x29,6
x29,7
x29,8
x29,9
x30,4
x30,5
x30,6
x30,7
x30,8
x30,9
x31,3
x31,4
x31,5
x31,6
x31,7
x31,8
x31,9
x32,8
x33,7
x34,6
x35,5
x36,4
x37,3
x38,2
x39,1
M1
M2
End
