TC_ILP/fir2_1.0.sol
<?xml version = "1.0" encoding="UTF-8" standalone="yes"?>
<CPLEXSolution version="1.2">
 <header
   problemName="fir2_1.0.lp"
   solutionName="incumbent"
   solutionIndex="-1"
   objectiveValue="7"
   solutionTypeValue="3"
   solutionTypeString="primal"
   solutionStatusValue="101"
   solutionStatusString="integer optimal solution"
   solutionMethodString="mip"
   primalFeasible="1"
   dualFeasible="1"
   MIPNodes="0"
   MIPIterations="0"
   writeLevel="1"/>
 <quality
   epInt="1.0000000000000001e-05"
   epRHS="9.9999999999999995e-07"
   maxIntInfeas="0"
   maxPrimalInfeas="0"
   maxX="4"
   maxSlack="2"/>
 <linearConstraints>
  <constraint name="c1" index="0" slack="0"/>
  <constraint name="c2" index="1" slack="0"/>
  <constraint name="c3" index="2" slack="0"/>
  <constraint name="c4" index="3" slack="0"/>
  <constraint name="c5" index="4" slack="0"/>
  <constraint name="c6" index="5" slack="0"/>
  <constraint name="c7" index="6" slack="0"/>
  <constraint name="c8" index="7" slack="0"/>
  <constraint name="c9" index="8" slack="0"/>
  <constraint name="c10" index="9" slack="0"/>
  <constraint name="c11" index="10" slack="0"/>
  <constraint name="c12" index="11" slack="0"/>
  <constraint name="c13" index="12" slack="0"/>
  <constraint name="c14" index="13" slack="0"/>
  <constraint name="c15" index="14" slack="0"/>
  <constraint name="c16" index="15" slack="0"/>
  <constraint name="c17" index="16" slack="0"/>
  <constraint name="c18" index="17" slack="0"/>
  <constraint name="c19" index="18" slack="0"/>
  <constraint name="c20" index="19" slack="0"/>
  <constraint name="c21" index="20" slack="0"/>
  <constraint name="c22" index="21" slack="0"/>
  <constraint name="c23" index="22" slack="0"/>
  <constraint name="c24" index="23" slack="0"/>
  <constraint name="c25" index="24" slack="0"/>
  <constraint name="c26" index="25" slack="0"/>
  <constraint name="c27" index="26" slack="0"/>
  <constraint name="c28" index="27" slack="0"/>
  <constraint name="c29" index="28" slack="0"/>
  <constraint name="c30" index="29" slack="0"/>
  <constraint name="c31" index="30" slack="0"/>
  <constraint name="c32" index="31" slack="0"/>
  <constraint name="c33" index="32" slack="0"/>
  <constraint name="c34" index="33" slack="0"/>
  <constraint name="c35" index="34" slack="0"/>
  <constraint name="c36" index="35" slack="0"/>
  <constraint name="c37" index="36" slack="0"/>
  <constraint name="c38" index="37" slack="0"/>
  <constraint name="c39" index="38" slack="0"/>
  <constraint name="c40" index="39" slack="0"/>
  <constraint name="c41" index="40" slack="1"/>
  <constraint name="c42" index="41" slack="2"/>
  <constraint name="c43" index="42" slack="1"/>
  <constraint name="c44" index="43" slack="0"/>
  <constraint name="c45" index="44" slack="1"/>
  <constraint name="c46" index="45" slack="0"/>
  <constraint name="c47" index="46" slack="1"/>
  <constraint name="c48" index="47" slack="0"/>
  <constraint name="c49" index="48" slack="1"/>
  <constraint name="c50" index="49" slack="1"/>
  <constraint name="c51" index="50" slack="0"/>
  <constraint name="c52" index="51" slack="1"/>
  <constraint name="c53" index="52" slack="1"/>
  <constraint name="c54" index="53" slack="0"/>
  <constraint name="c55" index="54" slack="0"/>
  <constraint name="c56" index="55" slack="0"/>
  <constraint name="c57" index="56" slack="0"/>
  <constraint name="c58" index="57" slack="0"/>
  <constraint name="c59" index="58" slack="0"/>
  <constraint name="c60" index="59" slack="0"/>
  <constraint name="c61" index="60" slack="0"/>
  <constraint name="c62" index="61" slack="0"/>
  <constraint name="c63" index="62" slack="0"/>
  <constraint name="c64" index="63" slack="0"/>
  <constraint name="c65" index="64" slack="0"/>
  <constraint name="c66" index="65" slack="0"/>
  <constraint name="c67" index="66" slack="0"/>
  <constraint name="c68" index="67" slack="0"/>
  <constraint name="c69" index="68" slack="0"/>
  <constraint name="c70" index="69" slack="0"/>
  <constraint name="c71" index="70" slack="0"/>
  <constraint name="c72" index="71" slack="0"/>
  <constraint name="c73" index="72" slack="0"/>
  <constraint name="c74" index="73" slack="0"/>
  <constraint name="c75" index="74" slack="0"/>
  <constraint name="c76" index="75" slack="0"/>
  <constraint name="c77" index="76" slack="0"/>
  <constraint name="c78" index="77" slack="0"/>
  <constraint name="c79" index="78" slack="0"/>
  <constraint name="c80" index="79" slack="0"/>
  <constraint name="c81" index="80" slack="0"/>
  <constraint name="c82" index="81" slack="0"/>
  <constraint name="c83" index="82" slack="0"/>
  <constraint name="c84" index="83" slack="0"/>
  <constraint name="c85" index="84" slack="0"/>
  <constraint name="c86" index="85" slack="0"/>
  <constraint name="c87" index="86" slack="0"/>
  <constraint name="c88" index="87" slack="0"/>
  <constraint name="c89" index="88" slack="0"/>
  <constraint name="c90" index="89" slack="0"/>
  <constraint name="c91" index="90" slack="0"/>
  <constraint name="c92" index="91" slack="0"/>
  <constraint name="c93" index="92" slack="0"/>
  <constraint name="c94" index="93" slack="0"/>
 </linearConstraints>
 <variables>
  <variable name="M1" index="0" value="3"/>
  <variable name="M2" index="1" value="4"/>
  <variable name="x0,12" index="2" value="1"/>
  <variable name="x1,12" index="3" value="1"/>
  <variable name="x2,11" index="4" value="1"/>
  <variable name="x3,12" index="5" value="1"/>
  <variable name="x4,12" index="6" value="1"/>
  <variable name="x5,11" index="7" value="1"/>
  <variable name="x6,11" index="8" value="1"/>
  <variable name="x6,12" index="9" value="0"/>
  <variable name="x7,11" index="10" value="1"/>
  <variable name="x7,12" index="11" value="0"/>
  <variable name="x8,10" index="12" value="1"/>
  <variable name="x8,11" index="13" value="0"/>
  <variable name="x9,10" index="14" value="1"/>
  <variable name="x9,11" index="15" value="0"/>
  <variable name="x9,12" index="16" value="0"/>
  <variable name="x10,10" index="17" value="1"/>
  <variable name="x10,11" index="18" value="0"/>
  <variable name="x10,12" index="19" value="0"/>
  <variable name="x11,9" index="20" value="1"/>
  <variable name="x11,10" index="21" value="0"/>
  <variable name="x11,11" index="22" value="0"/>
  <variable name="x12,9" index="23" value="1"/>
  <variable name="x12,10" index="24" value="0"/>
  <variable name="x12,11" index="25" value="0"/>
  <variable name="x12,12" index="26" value="0"/>
  <variable name="x13,9" index="27" value="1"/>
  <variable name="x13,10" index="28" value="0"/>
  <variable name="x13,11" index="29" value="0"/>
  <variable name="x13,12" index="30" value="0"/>
  <variable name="x14,8" index="31" value="1"/>
  <variable name="x14,9" index="32" value="0"/>
  <variable name="x14,10" index="33" value="0"/>
  <variable name="x14,11" index="34" value="0"/>
  <variable name="x15,8" index="35" value="1"/>
  <variable name="x15,9" index="36" value="0"/>
  <variable name="x15,10" index="37" value="0"/>
  <variable name="x15,11" index="38" value="0"/>
  <variable name="x15,12" index="39" value="0"/>
  <variable name="x16,8" index="40" value="1"/>
  <variable name="x16,9" index="41" value="0"/>
  <variable name="x16,10" index="42" value="0"/>
  <variable name="x16,11" index="43" value="0"/>
  <variable name="x16,12" index="44" value="0"/>
  <variable name="x17,7" index="45" value="1"/>
  <variable name="x17,8" index="46" value="0"/>
  <variable name="x17,9" index="47" value="0"/>
  <variable name="x17,10" index="48" value="0"/>
  <variable name="x17,11" index="49" value="0"/>
  <variable name="x18,7" index="50" value="1"/>
  <variable name="x18,8" index="51" value="0"/>
  <variable name="x18,9" index="52" value="0"/>
  <variable name="x18,10" index="53" value="0"/>
  <variable name="x18,11" index="54" value="0"/>
  <variable name="x18,12" index="55" value="0"/>
  <variable name="x19,7" index="56" value="1"/>
  <variable name="x19,8" index="57" value="0"/>
  <variable name="x19,9" index="58" value="0"/>
  <variable name="x19,10" index="59" value="0"/>
  <variable name="x19,11" index="60" value="0"/>
  <variable name="x19,12" index="61" value="0"/>
  <variable name="x20,6" index="62" value="1"/>
  <variable name="x20,7" index="63" value="0"/>
  <variable name="x20,8" index="64" value="0"/>
  <variable name="x20,9" index="65" value="0"/>
  <variable name="x20,10" index="66" value="0"/>
  <variable name="x20,11" index="67" value="0"/>
  <variable name="x21,6" index="68" value="1"/>
  <variable name="x21,7" index="69" value="0"/>
  <variable name="x21,8" index="70" value="0"/>
  <variable name="x21,9" index="71" value="0"/>
  <variable name="x21,10" index="72" value="0"/>
  <variable name="x21,11" index="73" value="0"/>
  <variable name="x21,12" index="74" value="0"/>
  <variable name="x22,6" index="75" value="1"/>
  <variable name="x22,7" index="76" value="0"/>
  <variable name="x22,8" index="77" value="0"/>
  <variable name="x22,9" index="78" value="0"/>
  <variable name="x22,10" index="79" value="0"/>
  <variable name="x22,11" index="80" value="0"/>
  <variable name="x22,12" index="81" value="0"/>
  <variable name="x23,5" index="82" value="1"/>
  <variable name="x23,6" index="83" value="0"/>
  <variable name="x23,7" index="84" value="0"/>
  <variable name="x23,8" index="85" value="0"/>
  <variable name="x23,9" index="86" value="0"/>
  <variable name="x23,10" index="87" value="0"/>
  <variable name="x23,11" index="88" value="0"/>
  <variable name="x24,9" index="89" value="1"/>
  <variable name="x25,9" index="90" value="1"/>
  <variable name="x26,8" index="91" value="1"/>
  <variable name="x26,9" index="92" value="0"/>
  <variable name="x27,7" index="93" value="1"/>
  <variable name="x27,8" index="94" value="0"/>
  <variable name="x27,9" index="95" value="0"/>
  <variable name="x28,6" index="96" value="1"/>
  <variable name="x28,7" index="97" value="0"/>
  <variable name="x28,8" index="98" value="0"/>
  <variable name="x28,9" index="99" value="0"/>
  <variable name="x29,5" index="100" value="1"/>
  <variable name="x29,6" index="101" value="0"/>
  <variable name="x29,7" index="102" value="0"/>
  <variable name="x29,8" index="103" value="0"/>
  <variable name="x29,9" index="104" value="0"/>
  <variable name="x30,4" index="105" value="1"/>
  <variable name="x30,5" index="106" value="0"/>
  <variable name="x30,6" index="107" value="0"/>
  <variable name="x30,7" index="108" value="0"/>
  <variable name="x30,8" index="109" value="0"/>
  <variable name="x30,9" index="110" value="0"/>
  <variable name="x31,3" index="111" value="1"/>
  <variable name="x31,4" index="112" value="0"/>
  <variable name="x31,5" index="113" value="0"/>
  <variable name="x31,6" index="114" value="0"/>
  <variable name="x31,7" index="115" value="0"/>
  <variable name="x31,8" index="116" value="0"/>
  <variable name="x31,9" index="117" value="0"/>
  <variable name="x32,8" index="118" value="1"/>
  <variable name="x33,7" index="119" value="1"/>
  <variable name="x34,6" index="120" value="1"/>
  <variable name="x35,5" index="121" value="1"/>
  <variable name="x36,4" index="122" value="1"/>
  <variable name="x37,3" index="123" value="1"/>
  <variable name="x38,2" index="124" value="1"/>
  <variable name="x39,1" index="125" value="1"/>
  <variable name="x30,3" index="126" value="0"/>
  <variable name="x29,4" index="127" value="0"/>
  <variable name="x28,5" index="128" value="0"/>
  <variable name="x27,6" index="129" value="0"/>
  <variable name="x26,7" index="130" value="0"/>
  <variable name="x24,8" index="131" value="0"/>
  <variable name="x25,8" index="132" value="0"/>
  <variable name="x24,10" index="133" value="0"/>
  <variable name="x25,10" index="134" value="0"/>
  <variable name="x26,10" index="135" value="0"/>
  <variable name="x27,10" index="136" value="0"/>
  <variable name="x28,10" index="137" value="0"/>
  <variable name="x29,10" index="138" value="0"/>
  <variable name="x30,10" index="139" value="0"/>
  <variable name="x31,10" index="140" value="0"/>
 </variables>
</CPLEXSolution>
